(assert (forall ((pkt_0_4_6_0  Int  )(state_group_0_state_0_5_7_0  Int  )(state_group_0_state_1_6_8_0  Int  )) (let ((_n0 state_group_0_state_1_6_8_0 ))
(let ((_n1 state_group_0_state_0_5_7_0 ))
(let ((_n2 true ))
(let ((_n3 (+   _n1   (ite  _n2  1 0) ) ))
(let ((_n4 (ite (=  _n0  0)  _n3   _n1  ) ))
(let ((_n5 1000 ))
(let ((_n6 pkt_0_4_6_0 ))
(let ((_n7 (-  _n6 )))
(let ((_n8 (+   _n0   _n7 ) ))
(let ((_n9 (=   _n8   _n5 ) ))
(let ((_n10 false ))
(let ((_n11 (ite (=  _n8  1000)  (ite  _n10  1 0)   _n0  ) ))
(let ((_n12 (<   _n11   (ite  _n2  1 0) ) ))
(let ((_n13 (ite (=  _n8  1000)  _n10   _n12  ) ))
(let ((_n14 (not  _n13 ) ))
(let ((_n15 (or   _n14   _n9 ) ))
(let ((_n16 999 ))
(let ((_n17 (ite  _n15   (ite  _n10  1 0)   _n1  ) ))
(let ((_n18 (=   _n17   _n16 ) ))
(let ((_n19 (ite  _n15   _n10   _n18  ) ))
(let ((_n20 (or   _n19   _n15 ) ))
(let ((_n21 2 ))
(let ((_n22 (ite  _n20   (ite  _n10  1 0)   _n21  ) ))
(let ((_n23 (-  _n22 )))
(let ((_n24 3 ))
(let ((_n25 (ite  _n20   (ite  _n10  1 0)   _n24  ) ))
(let ((_n26 (+   _n25   _n23 ) ))
(let ((_n27 (ite  _n20   (ite  _n10  1 0)   _n26  ) ))
(let ((_n28 (+   _n1   _n27 ) ))
(let ((_n29 (not  _n19 ) ))
(let ((_n30 (or   _n29   _n15 ) ))
(let ((_n31 (not  _n30 ) ))
(let ((_n32 (-  (ite  _n31  1 0) )))
(let ((_n33 1001 ))
(let ((_n34 (ite  _n30   (ite  _n10  1 0)   _n33  ) ))
(let ((_n35 (+   _n34   _n32 ) ))
(let ((_n36 (ite  _n30   (ite  _n10  1 0)   _n35  ) ))
(let ((_n37 (ite  _n30   _n1   (ite  _n10  1 0)  ) ))
(let ((_n38 (+   _n37   _n36 ) ))
(let ((_n39 (ite (=  (ite  _n19  1 0)  1)  _n38   _n28  ) ))
(let ((_n40 (ite (=  (ite  _n13  1 0)  1)  _n39   _n1  ) ))
(let ((_n41 997 ))
(let ((_n42 (ite (=  _n8  1000)  _n6   (ite  _n10  1 0)  ) ))
(let ((_n43 (-  _n42 )))
(let ((_n44 (=   _n43   _n41 ) ))
(let ((_n45 (ite (=  _n8  1000)  _n44   _n10  ) ))
(let ((_n46 (not  _n9 ) ))
(let ((_n47 (or   _n45   _n46 ) ))
(let ((_n48 (ite  _n47   (ite  _n10  1 0)   _n6  ) ))
(let ((_n49 (ite  _n47   (ite  _n10  1 0)   _n16  ) ))
(let ((_n50 (+   _n49   _n48 ) ))
(let ((_n51 (ite  _n47   (ite  _n10  1 0)   _n50  ) ))
(let ((_n52 (+   _n1   _n51 ) ))
(let ((_n53 (and   _n45   _n9 ) ))
(let ((_n54 (ite  _n53   _n41   (ite  _n10  1 0)  ) ))
(let ((_n55 (+   _n1   _n54 ) ))
(let ((_n56 (ite (=  (ite  _n45  1 0)  1)  _n55   _n52  ) ))
(let ((_n57 (ite (=  (ite  _n9  1 0)  1)  _n56   _n40  ) ))
(let ((_n58 (=   _n57   _n4 ) ))
(let ((_n60 (ite (=  _n1  999)  (ite  _n2  1 0)   _n0  ) ))
(let ((_n61 (ite (=  _n0  0)  _n60   _n0  ) ))
(let ((_n62 (ite  _n30   (ite  _n10  1 0)   _n21  ) ))
(let ((_n63 (-  _n62 )))
(let ((_n64 (ite  _n30   (ite  _n10  1 0)   _n24  ) ))
(let ((_n65 (+   _n64   _n63 ) ))
(let ((_n66 (ite  _n30   (ite  _n10  1 0)   _n65  ) ))
(let ((_n67 (+   _n0   _n66 ) ))
(let ((_n68 (ite (=  (ite  _n19  1 0)  1)  _n67   _n0  ) ))
(let ((_n69 (ite (=  (ite  _n13  1 0)  1)  _n68   _n0  ) ))
(let ((_n70 (ite  _n47   (ite  _n10  1 0)   _n41  ) ))
(let ((_n71 (+   _n48   _n70 ) ))
(let ((_n72 (ite  _n47   (ite  _n10  1 0)   _n71  ) ))
(let ((_n73 (+   _n0   _n72 ) ))
(let ((_n74 (+   _n54   _n54 ) ))
(let ((_n75 (ite  _n53   _n74   (ite  _n10  1 0)  ) ))
(let ((_n76 (+   _n0   _n75 ) ))
(let ((_n77 (ite (=  (ite  _n45  1 0)  1)  _n76   _n73  ) ))
(let ((_n78 (ite (=  (ite  _n9  1 0)  1)  _n77   _n69  ) ))
(let ((_n79 (=   _n78   _n61 ) ))
(let ((_n81 (ite (=  _n6  0)  _n6   (ite  _n10  1 0)  ) ))
(let ((_n82 (ite (=  _n6  0)  _n81   _n6  ) ))
(let ((_n83 (=   _n82   _n6 ) ))
(implies  (and (and (>= state_group_0_state_1_6_8_0 0) (< state_group_0_state_1_6_8_0 1024 ))  (and (and (>= state_group_0_state_0_5_7_0 0) (< state_group_0_state_0_5_7_0 1024 ))  (and (>= pkt_0_4_6_0 0) (< pkt_0_4_6_0 1024 )) ) )   (and  _n58  _n79  _n83 )  )))))))))))))))))))))))))))))))))))))))))))))))))))))))))))))))))))))))))))))))))))))
(check-sat)
(get-model)
(exit)